g3 0 1 0	# problem Bratu30
 30 30 0 0 30	# vars, constraints, objectives, ranges, eqns
 30 0	# nonlinear constraints, objectives
 0 0	# network constraints: nonlinear, linear
 30 0 0	# nonlinear vars in constraints, objectives, both
 0 0 0 1	# linear network variables; functions; arith, flags
 0 0 0 0 0	# discrete variables: binary, integer, nonlinear (b,c,o)
 88 0	# nonzeros in Jacobian, gradients
 0 0	# max name lengths: constraints, variables
 0 0 0 0 0	# common exprs: b,c,o,c1,o1
C0
o2
n0.00104058273
o44
v0
C1
o2
n0.00104058273
o44
v1
C2
o2
n0.00104058273
o44
v2
C3
o2
n0.00104058273
o44
v3
C4
o2
n0.00104058273
o44
v4
C5
o2
n0.00104058273
o44
v5
C6
o2
n0.00104058273
o44
v6
C7
o2
n0.00104058273
o44
v7
C8
o2
n0.00104058273
o44
v8
C9
o2
n0.00104058273
o44
v9
C10
o2
n0.00104058273
o44
v10
C11
o2
n0.00104058273
o44
v11
C12
o2
n0.00104058273
o44
v12
C13
o2
n0.00104058273
o44
v13
C14
o2
n0.00104058273
o44
v14
C15
o2
n0.00104058273
o44
v15
C16
o2
n0.00104058273
o44
v16
C17
o2
n0.00104058273
o44
v17
C18
o2
n0.00104058273
o44
v18
C19
o2
n0.00104058273
o44
v19
C20
o2
n0.00104058273
o44
v20
C21
o2
n0.00104058273
o44
v21
C22
o2
n0.00104058273
o44
v22
C23
o2
n0.00104058273
o44
v23
C24
o2
n0.00104058273
o44
v24
C25
o2
n0.00104058273
o44
v25
C26
o2
n0.00104058273
o44
v26
C27
o2
n0.00104058273
o44
v27
C28
o2
n0.00104058273
o44
v28
C29
o2
n0.00104058273
o44
v29
r
4 0
4 0
4 0
4 0
4 0
4 0
4 0
4 0
4 0
4 0
4 0
4 0
4 0
4 0
4 0
4 0
4 0
4 0
4 0
4 0
4 0
4 0
4 0
4 0
4 0
4 0
4 0
4 0
4 0
4 0
b
0 -10 10
0 -10 10
0 -10 10
0 -10 10
0 -10 10
0 -10 10
0 -10 10
0 -10 10
0 -10 10
0 -10 10
0 -10 10
0 -10 10
0 -10 10
0 -10 10
0 -10 10
0 -10 10
0 -10 10
0 -10 10
0 -10 10
0 -10 10
0 -10 10
0 -10 10
0 -10 10
0 -10 10
0 -10 10
0 -10 10
0 -10 10
0 -10 10
0 -10 10
0 -10 10
k29
2
5
8
11
14
17
20
23
26
29
32
35
38
41
44
47
50
53
56
59
62
65
68
71
74
77
80
83
86
J0 2
0 -2
1 1
J1 3
0 1
1 -2
2 1
J2 3
1 1
2 -2
3 1
J3 3
2 1
3 -2
4 1
J4 3
3 1
4 -2
5 1
J5 3
4 1
5 -2
6 1
J6 3
5 1
6 -2
7 1
J7 3
6 1
7 -2
8 1
J8 3
7 1
8 -2
9 1
J9 3
8 1
9 -2
10 1
J10 3
9 1
10 -2
11 1
J11 3
10 1
11 -2
12 1
J12 3
11 1
12 -2
13 1
J13 3
12 1
13 -2
14 1
J14 3
13 1
14 -2
15 1
J15 3
14 1
15 -2
16 1
J16 3
15 1
16 -2
17 1
J17 3
16 1
17 -2
18 1
J18 3
17 1
18 -2
19 1
J19 3
18 1
19 -2
20 1
J20 3
19 1
20 -2
21 1
J21 3
20 1
21 -2
22 1
J22 3
21 1
22 -2
23 1
J23 3
22 1
23 -2
24 1
J24 3
23 1
24 -2
25 1
J25 3
24 1
25 -2
26 1
J26 3
25 1
26 -2
27 1
J27 3
26 1
27 -2
28 1
J28 3
27 1
28 -2
29 1
J29 2
28 1
29 -2
